10	5
0	2	1	2
1	2	4	3
2	2	3	6
3	2	10	5
4	1	7
5	2	9	8
6	2	10	8
7	2	6	5
8	1	11
9	1	11
10	1	11
11	0
0	0	0	0	0	0	0
1	5	5	5	2	2	1
2	6	4	3	2	3	3
3	5	1	3	4	2	4
4	6	1	3	4	1	3
5	9	4	4	3	2	2
6	6	5	2	2	1	4
7	5	1	2	2	2	3
8	7	1	1	4	3	4
9	10	5	4	3	5	1
10	2	3	3	4	5	2
11	0	0	0	0	0	0
5	5	5	5	5
